Route #1:
Route #2: 21 16
Route #3: 7
Route #4: 20 5 2 19 3
Route #5: 25
Route #6: 14 9 13 30
Route #7: 28
Route #8: 12
Route #9: 15 1
Route #10: 26
Route #11: 24
Route #12: 22 4 17 6 18 31
Route #13: 29 23 8 11 27 10

Cost: 2244.8472895498385
